c read Graph
c width = 253
c time = 149 ms
c width = 20
c time = 320 ms
c width = 19
c time = 493 ms
c width = 18
c time = 549 ms
c width = 17
c time = 3235 ms
c width = 17
c time = 5179 ms
s td 216 18 266
b 1 1 2 20
b 2 2 3 20 21
b 3 17 18 37 38
b 4 3 20 21 39
b 5 17 37 38 57
b 6 210 229 230 249
b 7 228 246 247 265
b 8 210 230 249 250
b 9 228 246 264 265
b 10 3 4 5 23
b 11 3 5 22 23 40 58
b 12 5 22 23 40 42 58 60
b 13 5 23 40 42 58 60 78
b 14 5 23 42 58 60 78 96
b 15 5 23 25 42 43 60 78 96
b 16 5 25 42 43 60 62 78 80 96
b 17 5 25 43 60 62 78 80 96 98
b 18 5 25 43 62 78 80 96 98 116
b 19 5 25 43 45 62 63 80 96 98 116
b 20 25 43 44 45 63
b 21 5 25 45 62 63 80 82 96 98 100 116
b 22 5 25 45 63 80 82 96 98 100 116 118
b 23 5 25 45 63 82 96 98 100 116 118 136
b 24 5 25 45 63 65 82 83 96 100 116 118 136
b 25 45 63 64 65 83
b 26 5 25 45 65 82 83 96 100 103 116 118 121 136 138 139
b 27 5 25 45 65 83 85 96 103 116 118 121 136 138 139
b 28 65 83 84 85 103
b 29 5 9 25 29 45 49 65 67 85 96 103 116 118 121 136 138 139
b 30 5 9 25 29 45 47 49 65 67 85
b 31 5 9 25 27 29 45 47 65
b 32 27 45 46 47 65
b 33 9 27 28 29 47
b 34 5 7 9 25 27 45
b 35 5 6 7 25
b 36 7 25 26 27 45
b 37 7 8 9 27
b 38 29 47 48 49 67
b 39 47 65 66 67 85
b 40 9 29 49 67 85 96 103 116 118 121 136 138 139 156
b 41 118 136 137 138 156
b 42 9 29 49 67 85 96 103 116 121 136 138 139 156 175 195 215 235 253
b 43 9 29 49 67 85 103 121 138 139 156 159 175 179 195 197 215 235 253
b 44 9 29 49 67 85 103 121 123 139 143 159 161 179 197 215 235 253
b 45 103 121 123 139 141 143 159 161 179
b 46 141 159 160 161 179
b 47 103 121 122 123 141
b 48 121 139 140 141 159
b 49 123 141 142 143 161
b 50 9 29 49 67 85 103 123 143 161 179 197 199 215 219 235 239 253 257
b 51 9 29 49 67 85 103 123 143 161 179 199 219 235 239 253 257
b 52 9 29 49 67 69 85 89 103 107 123 125 143 161 179 199 219 239 257
b 53 49 67 69 85 87 89 103 107 123 125 143
b 54 67 85 87 103 105 107 123 125 143
b 55 85 103 104 105 123
b 56 67 85 86 87 105
b 57 87 105 106 107 125
b 58 105 123 124 125 143
b 59 69 87 88 89 107
b 60 49 67 68 69 87
b 61 9 29 49 69 89 107 125 143 161 163 179 183 199 203 219 221 239 257
b 62 143 161 163 179 183 199 201 203 219 221 239
b 63 183 201 202 203 221
b 64 201 219 220 221 239
b 65 143 161 163 179 181 183 199 201 219
b 66 163 181 182 183 201
b 67 181 199 200 201 219
b 68 143 161 162 163 181
b 69 161 179 180 181 199
b 70 179 197 199 215 217 219 235 239 253 257
b 71 179 197 198 199 217
b 72 199 217 219 235 237 239 253 257
b 73 219 237 238 239 257
b 74 199 217 218 219 237
b 75 217 235 237 253 255 257
b 76 235 253 254 255
b 77 237 255 256 257
b 78 217 235 236 237 255
b 79 197 215 216 217 235
b 80 138 139 156 159 175 177 179 195 197 215
b 81 159 177 178 179 197
b 82 177 195 196 197 215
b 83 138 139 156 157 159 175 177 195
b 84 157 175 176 177 195
b 85 139 157 158 159 177
b 86 96 116 136 154 156 172 175 195 215 235 253
b 87 136 154 156 172 174 175 195 215 235 253
b 88 154 172 174 175 195 215 233 235 253
b 89 215 233 234 235 253
b 90 154 172 174 175 195 213 215 233 253
b 91 154 172 174 175 193 195 213 233 253
b 92 175 193 194 195 213
b 93 154 172 174 192 193 213 233 253
b 94 154 172 173 174 192
b 95 172 192 193 213 233 251 253
b 96 233 251 252 253
b 97 172 192 193 213 231 233 251
b 98 213 231 232 233 251
b 99 172 192 193 211 213 231 251
b 100 193 211 212 213 231
b 101 172 192 210 211 231 251
b 102 210 211 231 250 251
b 103 210 211 230 231 250
b 104 172 191 192 210
b 105 195 213 214 215 233
b 106 136 154 155 156 174
b 107 96 116 134 136 154 172
b 108 134 153 154 172
b 109 116 134 135 136 154
b 110 96 115 116 134
b 111 82 83 100 103 118 120 121 138 139
b 112 82 83 100 102 103 120 121
b 113 82 100 101 102 120
b 114 100 118 119 120 138
b 115 98 116 117 118 136
b 116 80 98 99 100 118
b 117 62 80 81 82 100
b 118 78 96 97 98 116
b 119 60 78 79 80 98
b 120 42 60 61 62 80
b 121 5 23 24 25 43
b 122 58 77 78 96
b 123 40 58 59 60 78
b 124 22 40 41 42 60
b 125 3 22 39 40 58
b 126 3 21 22 39 40
b 127 9 13 29 33 49 51 69 89 107 125 143 163 183 203 221 239 257
b 128 13 33 51 69 71 89 107 125 143 163 183 203 221 239 257
b 129 13 33 51 71 89 107 125 127 143 147 163 165 183 203 221 239 257
b 130 13 33 51 71 89 90 107 110 127 130 147 148 165 183 203 221 239 257
b 131 13 33 51 71 76 90 94 110 112 130 147 148 165 183 203 221 239 257
b 132 107 125 127 143 145 147 163 165 183
b 133 107 125 126 127 145
b 134 145 163 164 165 183
b 135 125 143 144 145 163
b 136 127 145 146 147 165
b 137 76 94 112 130 147 148 152 165 167 170 183 187 188 203 221 239 257
b 138 147 152 165 167 170 183 187 188 203 205 221 223 239 257
b 139 147 165 167 183 185 187 203 205 223
b 140 185 203 204 205 223
b 141 167 185 186 187 205
b 142 165 183 184 185 203
b 143 147 165 166 167 185
b 144 152 170 187 188 203 205 221 223 239 241 257
b 145 203 221 222 223 241
b 146 152 170 187 188 205 221 223 239 241 257 261
b 147 221 239 241 257 259 261
b 148 239 257 258 259
b 149 241 259 260 261
b 150 221 239 240 241 259
b 151 152 170 187 188 205 223 241 243 261
b 152 223 241 242 243 261
b 153 152 170 187 188 205 223 225 243 261
b 154 205 223 224 225 243
b 155 152 170 187 188 205 207 225 243 261
b 156 187 205 206 207 225
b 157 152 170 188 207 225 227 228 243 261
b 158 207 225 227 228 243 261 263
b 159 243 261 262 263
b 160 207 225 227 228 243 245 263
b 161 227 228 245 263 264
b 162 227 228 245 246 264
b 163 225 243 244 245 263
b 164 207 225 226 227 245
b 165 152 170 188 207 208 227 228
b 166 152 170 188 190 208 228
b 167 190 208 209 228
b 168 170 188 189 190 208
b 169 152 170 171 190
b 170 76 94 112 130 148 150 152 167 170 187 188
b 171 130 148 150 167 168 170 187 188
b 172 150 168 169 170 188
b 173 130 148 149 150 168
b 174 76 94 112 130 132 150 152 170
b 175 132 150 151 152 170
b 176 112 130 131 132 150
b 177 76 94 112 114 132 152
b 178 114 132 133 152
b 179 94 112 113 114 132
b 180 76 94 95 114
b 181 51 69 70 71 89
b 182 13 33 51 71 76 90 92 94 110 112 130
b 183 13 33 51 71 72 76 90 92 94 110 112
b 184 72 90 91 92 110
b 185 13 33 51 53 71 72 76 92 94 112
b 186 13 33 53 72 74 76 92 94 112
b 187 13 33 53 54 72 74 76 92 94
b 188 54 72 73 74 92
b 189 13 17 33 36 53 54 74 76 94
b 190 13 17 33 35 36 53 54
b 191 13 15 17 33 35 53
b 192 13 14 15 33
b 193 15 16 17 35
b 194 15 33 34 35 53
b 195 17 36 54 56 74 76 94
b 196 56 74 75 76 94
b 197 17 36 56 57 76
b 198 17 36 37 56 57
b 199 36 54 55 56 74
b 200 74 92 93 94 112
b 201 33 51 52 53 71
b 202 92 110 111 112 130
b 203 9 13 29 31 33 49 51 69
b 204 13 31 32 33 51
b 205 9 11 13 29 31 49
b 206 11 29 30 31 49
b 207 11 12 13 31
b 208 9 10 11 29
b 209 31 49 50 51 69
b 210 89 90 107 110 127 128 130 147 148
b 211 89 90 107 108 110 127 128
b 212 90 108 109 110 128
b 213 110 128 129 130 148
b 214 247 265 266
b 215 229 248 249
b 216 18 19 38
1 2
2 4
3 216
3 5
4 126
5 198
6 215
6 8
7 214
7 9
8 103
9 162
10 11
11 125
11 12
12 124
12 13
13 123
13 14
14 122
14 15
15 121
15 16
16 120
16 17
17 119
17 18
18 118
18 19
19 21
19 20
21 117
21 22
22 116
22 23
23 115
23 24
24 26
24 25
26 111
26 27
27 29
27 28
29 40
29 30
30 39
30 38
30 31
31 32
31 33
31 34
34 36
34 37
34 35
40 42
40 41
42 86
42 43
43 44
43 80
44 50
44 45
45 48
45 49
45 47
45 46
50 70
50 52
50 51
52 61
52 53
53 60
53 59
53 54
54 55
54 56
54 57
54 58
61 127
61 62
62 63
62 64
62 65
65 69
65 67
65 68
65 66
70 71
70 72
70 79
72 74
72 75
72 73
75 77
75 78
75 76
80 81
80 82
80 83
83 84
83 85
86 87
86 107
87 106
87 88
88 89
88 90
90 91
90 105
91 92
91 93
93 94
93 95
95 96
95 97
97 98
97 99
99 100
99 101
101 104
101 102
102 103
107 108
107 109
107 110
111 112
111 114
112 113
125 126
127 203
127 128
128 181
128 129
129 132
129 130
130 210
130 131
131 137
131 182
132 133
132 134
132 135
132 136
137 170
137 138
138 139
138 144
139 143
139 140
139 141
139 142
144 145
144 146
146 147
146 151
147 148
147 149
147 150
151 152
151 153
153 154
153 155
155 156
155 157
157 165
157 158
158 159
158 160
160 161
160 163
160 164
161 162
165 166
166 169
166 167
166 168
170 171
170 174
171 172
171 173
174 175
174 176
174 177
177 178
177 179
177 180
182 183
182 202
183 185
183 184
185 201
185 186
186 200
186 187
187 188
187 189
189 190
189 195
190 191
191 192
191 193
191 194
195 197
195 196
195 199
197 198
203 204
203 205
203 209
205 208
205 206
205 207
210 213
210 211
211 212
